32	0

0	1	2
9	1	3
1	2	4	5
8	2	6	7
2	2	6	7
10	1	8
9	2	8	9
1	1	10
3	1	10
8	1	11
4	1	12
2	1	13
2	1	14
2	1	15
5	1	16
7	1	17
9	1	18
6	2	19	20
8	1	21
3	1	21
2	1	22
5	1	23
8	2	24	25
5	2	26	27
10	1	27
6	1	28
9	1	28
1	2	29	31
2	1	30
1	1	32
7	1	32
0	0
